<?xml version = "1.0" standalone="yes"?>
<!-- This file has been generated by DOcplex version 2.23.222  -->
<CPLEXSolution version="1.0">
 <header
   problemName="CVRP"
   objectiveValue="17911.3"
  />
 <variables>
  <variable name="x_0_1" index="0" value="1.00000"/>
  <variable name="x_0_2" index="1" value="1.00000"/>
  <variable name="x_0_8" index="7" value="1.00000"/>
  <variable name="x_0_9" index="8" value="1.00000"/>
  <variable name="x_0_12" index="11" value="1.00000"/>
  <variable name="x_0_13" index="12" value="1.00000"/>
  <variable name="x_0_15" index="14" value="1.00000"/>
  <variable name="x_0_16" index="15" value="1.00000"/>
  <variable name="x_0_17" index="16" value="1.00000"/>
  <variable name="x_0_18" index="17" value="1.00000"/>
  <variable name="x_0_21" index="20" value="1.00000"/>
  <variable name="x_0_23" index="22" value="1.00000"/>
  <variable name="x_0_25" index="24" value="1.00000"/>
  <variable name="x_0_27" index="26" value="1.00000"/>
  <variable name="x_0_28" index="27" value="1.00000"/>
  <variable name="x_1_24" index="52" value="1.00000"/>
  <variable name="x_2_0" index="58" value="1.00000"/>
  <variable name="x_3_7" index="93" value="1.00000"/>
  <variable name="x_4_0" index="116" value="1.00000"/>
  <variable name="x_5_20" index="164" value="1.00000"/>
  <variable name="x_6_0" index="174" value="1.00000"/>
  <variable name="x_7_0" index="203" value="1.00000"/>
  <variable name="x_8_3" index="235" value="1.00000"/>
  <variable name="x_9_14" index="274" value="1.00000"/>
  <variable name="x_10_0" index="290" value="1.00000"/>
  <variable name="x_11_0" index="319" value="1.00000"/>
  <variable name="x_12_0" index="348" value="1.00000"/>
  <variable name="x_13_6" index="383" value="1.00000"/>
  <variable name="x_14_10" index="416" value="1.00000"/>
  <variable name="x_15_22" index="456" value="1.00000"/>
  <variable name="x_16_19" index="482" value="1.00000"/>
  <variable name="x_17_26" index="518" value="1.00000"/>
  <variable name="x_18_4" index="526" value="1.00000"/>
  <variable name="x_19_0" index="551" value="1.00000"/>
  <variable name="x_20_0" index="580" value="1.00000"/>
  <variable name="x_21_0" index="609" value="1.00000"/>
  <variable name="x_22_0" index="638" value="1.00000"/>
  <variable name="x_23_5" index="672" value="1.00000"/>
  <variable name="x_24_0" index="696" value="1.00000"/>
  <variable name="x_25_0" index="725" value="1.00000"/>
  <variable name="x_26_0" index="754" value="1.00000"/>
  <variable name="x_27_29" index="811" value="1.00000"/>
  <variable name="x_28_0" index="812" value="1.00000"/>
  <variable name="x_29_11" index="852" value="1.00000"/>
  <variable name="u_1" index="870" value="21.00000"/>
  <variable name="u_2" index="871" value="15.00000"/>
  <variable name="u_3" index="872" value="36.00000"/>
  <variable name="u_4" index="873" value="36.00000"/>
  <variable name="u_5" index="874" value="33.00000"/>
  <variable name="u_6" index="875" value="38.00000"/>
  <variable name="u_7" index="876" value="39.00000"/>
  <variable name="u_8" index="877" value="12.00000"/>
  <variable name="u_9" index="878" value="16.00000"/>
  <variable name="u_10" index="879" value="39.00000"/>
  <variable name="u_11" index="880" value="39.00000"/>
  <variable name="u_12" index="881" value="39.00000"/>
  <variable name="u_13" index="882" value="25.00000"/>
  <variable name="u_14" index="883" value="33.00000"/>
  <variable name="u_15" index="884" value="23.00000"/>
  <variable name="u_16" index="885" value="13.00000"/>
  <variable name="u_17" index="886" value="16.00000"/>
  <variable name="u_18" index="887" value="7.00000"/>
  <variable name="u_19" index="888" value="39.00000"/>
  <variable name="u_20" index="889" value="38.00000"/>
  <variable name="u_21" index="890" value="37.00000"/>
  <variable name="u_22" index="891" value="39.00000"/>
  <variable name="u_23" index="892" value="30.00000"/>
  <variable name="u_24" index="893" value="39.00000"/>
  <variable name="u_25" index="894" value="39.00000"/>
  <variable name="u_26" index="895" value="39.00000"/>
  <variable name="u_27" index="896" value="24.00000"/>
  <variable name="u_28" index="897" value="37.00000"/>
  <variable name="u_29" index="898" value="26.00000"/>
 </variables>
</CPLEXSolution>
